set C := 1 2 3 4 5 6 7 8 9 10;

param q :=
    1 46.59
    2 22.28
    3 35.93
    4 46.64
    5 11.51
    6 13.48
    7 23.23
    8 43.92
    9 31.21
    10 16.09;
param ca :=
    1 183.35
    2 177.03
    3 152.19
    4 177.82
    5 192.99
    6 229.22
    7 248.14
    8 162.03
    9 194.81
    10 208.42;
param cc :=
    1 33.22
    2 33.03
    3 44.01
    4 36.61
    5 31.62
    6 32.95
    7 40.93
    8 31.07
    9 31.80
    10 38.55;
param cp :=
    1 5.07
    2 5.49
    3 6.42
    4 11.96
    5 11.66
    6 5.28
    7 8.83
    8 6.44
    9 10.36
    10 11.06;
param sMin := 0;
param sMax := 80;

namespace t0
{
    set A :=;
    set AAnt := 1 2;
    set P := 3 4 5 6 7 8 9 10;
    set S := 1;

    param p :=
        1 1.0000000000;
    param d :=
        1 46.63;
    param h := 1;
    param s0 := 20;
}

namespace t1
{
    set AAnt :=;
    set P := 3 4 5 6 7 8 9 10;
    set PAnt := 3 4 5 6 7 8 9 10;
    set S := 1 2 3;

    param p :=
        1 0.0708832116
        2 0.2790299558
        3 0.6500868325;
    param d :=
        1 46.29
        2 17.53
        3 20.07;
    param h := 1;
}

namespace t2
{
    set A2Ant :=;
    set P := 3 4 5 6 7 8 9 10;
    set PAnt := 3 4 5 6 7 8 9 10;
    set S := 1 2 3;

    param p :=
        1 0.0623690935
        2 0.3120615095
        3 0.6255693970;
    param d :=
        1 18.93
        2 25.85
        3 36.36;
    param h := 1;
}

namespace t3
{
    set P := 3 4 5 6 7 8 9 10;
    set PAnt := 3 4 5 6 7 8 9 10;
    set S := 1 2 3;

    param p :=
        1 0.1364661921
        2 0.5445287813
        3 0.3190050267;
    param d :=
        1 27.16
        2 36.87
        3 11.39;
    param h := 1;
}

namespace t4
{
    set PAnt := 3 4 5 6 7 8 9 10;
    set S := 1 2 3;

    param p :=
        1 0.2993045874
        2 0.0660689139
        3 0.6346264987;
    param d :=
        1 31.84
        2 33.89
        3 43.39;
    param h := 1;
}
